NAME : ClusterId_1009 
COMMENT : (Gillet and Johnson) 
TYPE : CVRP 
DIMENSION : 12 
EDGE_WEIGHT_TYPE : EUC_2D 
CAPACITY : 500 
NODE_COORD_SECTION 
1009 815 9451 
862 165 9943 
652 110 9824 
840 287 9908 
567 121 9681 
865 544 9891 
971 754 9956 
175 1092 9905 
793 574 9417 
726 830 9592 
476 499 9296 
947 1039 9564 
DEMAND_SECTION 
1009 1001
862 36
652 41
840 50
567 39
865 36
971 30
175 45
793 27
726 39
476 32
947 26
DEPOT_SECTION 
1009
 -1
EOF